NAME (null)_copy
ROWS
 N  OBJ
 E  BBT...XI
 E  BC2...XI
 E  BC3...XI
 E  BC4...XI
 E  BDC...XI
 E  BDH...XI
 E  BD1...XI
 E  BFG...XI
 E  BFL...XI
 E  BFS...XI
 E  BF1...XI
 E  BG1...XI
 E  BHB...XI
 E  BHS...XI
 E  BH1...XI
 E  BIP...XI
 E  BMM...XI
 E  BNH...XI
 E  BNP...XI
 E  BN1...XI
 E  BO2...XI
 E  BPR...XI
 E  BPS...XI
 E  BWP...XI
 E  BWS...XI
 E  BYG...XI
 E  B6H...XI
 E  B9H...XI
 E  BFL.WTXI
 E  BF1.WTXI
 L  C...FOXI
 E  C...LEXI
 E  C...RAXI
 E  C...RDXI
 E  UBW...XI
 E  UCW...XI
 E  UDW...XI
 E  UFF...XI
 L  UPH...XI
 L  UPK...XI
 L  UPL...XI
 L  UPM...XI
 E  UPW...XI
 L  URW...XI
 E  UTW...XI
 L  XGS.FLXI
 L  XSU.FLXI
 L  XGS.F1XI
 L  XSU.F1XI
COLUMNS
    BDC.FLXI  XGS.FLXI  -10.8413
    BDC.FLXI  BDC...XI  -1
    BDC.FLXI  BFL...XI  0.0817
    BDC.FLXI  BFL.WTXI  1
    BDC.FLXI  XSU.FLXI  0.01
    BDC.FLXI  C...FOXI  1.5995
    BDH.FLXI  XGS.FLXI  -1.0638300000000001e+01
    BDH.FLXI  BDH...XI  -1
    BDH.FLXI  BFL...XI  0.0532
    BDH.FLXI  BFL.WTXI  1
    BDH.FLXI  XSU.FLXI  0.01
    BDH.FLXI  C...FOXI  1.5995
    BD1.FLXI  XGS.FLXI  -10.0705
    BD1.FLXI  BD1...XI  -1
    BD1.FLXI  BFL...XI  0.0083
    BD1.FLXI  BFL.WTXI  1
    BD1.FLXI  XSU.FLXI  0.22
    BD1.FLXI  C...FOXI  1.5995
    BG1.FLXI  XGS.FLXI  -8.8028
    BG1.FLXI  BG1...XI  -1
    BG1.FLXI  BFL...XI  -0.114
    BG1.FLXI  BFL.WTXI  1
    BG1.FLXI  XSU.FLXI  1.02
    BG1.FLXI  C...FOXI  2.3923
    BH1.FLXI  XGS.FLXI  -9.901
    BH1.FLXI  BH1...XI  -1
    BH1.FLXI  BFL...XI  -0.0057
    BH1.FLXI  BFL.WTXI  1
    BH1.FLXI  XSU.FLXI  0.32
    BH1.FLXI  C...FOXI  1.5995
    BDC.F1XI  XGS.F1XI  -10.8413
    BDC.F1XI  BDC...XI  -1
    BDC.F1XI  BF1...XI  0.0817
    BDC.F1XI  BF1.WTXI  1
    BDC.F1XI  XSU.F1XI  0.01
    BDC.F1XI  C...FOXI  1.5995
    BDH.F1XI  XGS.F1XI  -1.0638300000000001e+01
    BDH.F1XI  BDH...XI  -1
    BDH.F1XI  BF1...XI  0.0532
    BDH.F1XI  BF1.WTXI  1
    BDH.F1XI  XSU.F1XI  0.01
    BDH.F1XI  C...FOXI  1.5995
    BD1.F1XI  XGS.F1XI  -10.0705
    BD1.F1XI  BD1...XI  -1
    BD1.F1XI  BF1...XI  0.0083
    BD1.F1XI  BF1.WTXI  1
    BD1.F1XI  XSU.F1XI  0.22
    BD1.F1XI  C...FOXI  1.5995
    DFH...XI  OBJ       -1
    DFH...XI  C...FOXI  1.2784335254826609e+00
    DFH...XI  BNP...XI  -9.1499679751120877e-01
    DF1...XI  OBJ       -1
    DF1...XI  BF1...XI  -1
    DL2...XI  OBJ       1.1503346050039096e+00
    DL2...XI  UCW...XI  -1.1993745113369820e+00
    DL2...XI  UTW...XI  -1.9052931978107898e+02
    DL2...XI  BHB...XI  -7.8186082877247853e-01
    DL2...XI  UPK...XI  -1.6580140734949180e+00
    DL3...XI  OBJ       2.9285479026071155e+01
    DL3...XI  BPR...XI  -8.4509422800642275e-01
    DL3...XI  UPK...XI  -1.2721625961294682e+00
    DL4...XI  OBJ       5.9645901328608248e+00
    DL4...XI  BBT...XI  -0.859106529209622
    DL4...XI  UPK...XI  -1.5086340206185564e+00
    DMM...XI  OBJ       35.70052
    DMM...XI  BMM...XI  -1
    DPS...XI  OBJ       -0.47995
    DPS...XI  BPS...XI  -1
    MFG.FFXI  UFF...XI  1
    MFG.FFXI  BFG...XI  -1
    MFI.FFXI  OBJ       1.50159968
    MFI.FFXI  UFF...XI  1
    MFI.FFXI  BIP...XI  -1
    MBT.FGXI  OBJ       17.01153471813
    MBT.FGXI  UPL...XI  -0.39353
    MBT.FGXI  BBT...XI  -1
    MBT.FGXI  BFG...XI  1.1391
    MHB.FGXI  OBJ       6.303376903955
    MHB.FGXI  UPK...XI  -6.3813499999999990e-01
    MHB.FGXI  BHB...XI  -1
    MHB.FGXI  BFG...XI  1.227
    MHB.FGXI  UCW...XI  -0.4618
    MHB.FGXI  UTW...XI  -73.333
    MPR.FGXI  OBJ       5.6328619718130007e+01
    MPR.FGXI  UPL...XI  -0.39353
    MPR.FGXI  BPR...XI  -1
    MPR.FGXI  BFG...XI  1.1546
    MFG.FSXI  BFS...XI  1
    MFG.FSXI  BFG...XI  -1
    MFI.FSXI  OBJ       1.50159968
    MFI.FSXI  BIP...XI  -1
    MFI.FSXI  BFS...XI  1
    MH1.G1XI  BG1...XI  1
    MH1.G1XI  BH1...XI  -1
    PFS.BGXI  OBJ       17.37072306777
    PFS.BGXI  UPL...XI  -0.90367
    PFS.BGXI  UPK...XI  -1.3582189999999997e+02
    PFS.BGXI  UBW...XI  -1.0464086956521740e+01
    PFS.BGXI  BFS...XI  -1
    PFS.BGXI  UPH...XI  12.0337
    PHS.CUXI  OBJ       19.3742438392295
    PHS.CUXI  UDW...XI  -6.2253500000000006e-01
    PHS.CUXI  UPK...XI  -167.15641
    PHS.CUXI  UPL...XI  2.9991905
    PHS.CUXI  UBW...XI  -3.17
    PHS.CUXI  UFF...XI  -0.061
    PHS.CUXI  BHS...XI  -1.064
    PHS.CUXI  BPS...XI  1
    P...FOXI  OBJ       0.53255136266
    P...FOXI  UPM...XI  -0.00345
    P...FOXI  UPL...XI  -1.5639999999999998e-02
    P...FOXI  UPK...XI  -6.8999999999999986e-04
    P...FOXI  C...FOXI  -1
    PYG.GXXI  OBJ       335.35491
    PYG.GXXI  BYG...XI  -1
    PYF.HSXI  OBJ       3.4238884727372742e+01
    PYF.HSXI  BYG...XI  -1
    PYF.HSXI  UPW...XI  -0.1
    PYF.HSXI  UPL...XI  -1.2109499999999997e+00
    PYF.HSXI  UPK...XI  -369.05121178
    PYF.HSXI  UTW...XI  -231.1
    PYF.HSXI  UCW...XI  -23.85
    PYF.HSXI  UDW...XI  -1.733
    PYF.HSXI  BO2...XI  -1
    PYF.HSXI  B9H...XI  0.2
    PYF.HSXI  BHB...XI  0.0376
    PYF.HSXI  BPS...XI  0.0316
    PYF.HSXI  BWS...XI  0.6268
    PC2.HYXI  OBJ       1.1561554769185001e+01
    PC2.HYXI  UPM...XI  -1.2247499999999999e-01
    PC2.HYXI  UPK...XI  -8.2551369999999991e+01
    PC2.HYXI  UTW...XI  -130.53
    PC2.HYXI  UCW...XI  -5.867
    PC2.HYXI  BC2...XI  -1
    PC2.HYXI  BN1...XI  -0.0158
    PC2.HYXI  BHB...XI  1.0126
    PC2.HYXI  BPR...XI  0.0015
    PC3.HYXI  OBJ       1.2148902995155002e+01
    PC3.HYXI  UPM...XI  -1.2247499999999999e-01
    PC3.HYXI  UPK...XI  -258.77346
    PC3.HYXI  UTW...XI  -130.53
    PC3.HYXI  UCW...XI  -5.867
    PC3.HYXI  BC3...XI  -1
    PC3.HYXI  BHB...XI  0.1805
    PC3.HYXI  BPR...XI  0.7863
    PC3.HYXI  BBT...XI  0.0222
    PC4.HYXI  OBJ       1.2148902995155002e+01
    PC4.HYXI  UPM...XI  -1.2247499999999999e-01
    PC4.HYXI  UPK...XI  -258.77346
    PC4.HYXI  UTW...XI  -130.53
    PC4.HYXI  UCW...XI  -5.867
    PC4.HYXI  BC4...XI  -1
    PC4.HYXI  BHB...XI  0.1003
    PC4.HYXI  BPR...XI  0.0335
    PC4.HYXI  BBT...XI  0.8223
    PC4.HYXI  BNH...XI  0.0257
    P6H.HYXI  OBJ       1.1577926831815002e+01
    P6H.HYXI  UPM...XI  -1.2247499999999999e-01
    P6H.HYXI  UPK...XI  -8.7463479999999990e+01
    P6H.HYXI  UTW...XI  -1426.904
    P6H.HYXI  UCW...XI  -62.674
    P6H.HYXI  B6H...XI  -1
    P6H.HYXI  B9H...XI  0.8703
    P6H.HYXI  BHB...XI  0.0689
    P6H.HYXI  BWS...XI  0.1828
    P...LEXI  OBJ       1.424089422895
    P...LEXI  UPM...XI  -2.9612499999999997e-01
    P...LEXI  UPL...XI  -0.00207
    P...LEXI  UPK...XI  -8.3259999999999990e-01
    P...LEXI  UCW...XI  -8.6439
    P...LEXI  UFF...XI  -0.0001
    P...LEXI  C...LEXI  1
    PIC.M3XI  OBJ       -2.1824464694727212e+01
    PIC.M3XI  BPS...XI  -0.0487
    PIC.M3XI  BHB...XI  -0.0376
    PIC.M3XI  BO2...XI  0.7955
    PIC.M3XI  BNH...XI  1.4879999999999999e-02
    PIC.M3XI  UDW...XI  1.72292
    PIC.M3XI  UTW...XI  220.44364
    PIC.M3XI  BYG...XI  0.311068935
    PIC.M3XI  UBW...XI  -0.028662672
    PIC.M3XI  UFF...XI  -0.064120915
    PIC.M3XI  UPL...XI  1.1113580732999997e+00
    PIC.M3XI  UPK...XI  146.39404914205
    PIC.M3XI  UCW...XI  12.039602327
    PIC.M3XI  BC2...XI  0.07241
    PIC.M3XI  BC3...XI  3.0809999999999997e-02
    PIC.M3XI  BC4...XI  0.0176
    PIC.M3XI  BD1...XI  0.19439
    PIC.M3XI  BG1...XI  3.4361064999999996e-02
    PIC.M3XI  BHS...XI  0.03499
    PIC.M3XI  BH1...XI  0.0522
    PIC.M3XI  BMM...XI  0.00656
    PIC.M3XI  BN1...XI  0.16403
    PIC.M3XI  BWP...XI  0.1647
    PIC.M3XI  BWS...XI  -3.7041241200000008e-01
    PIC.M3XI  B6H...XI  0.01523
    PIC.M3XI  B9H...XI  -0.23524
    PIC.M3XI  C...RAXI  -0.00654
    PIC.M3XI  C...RDXI  -0.26128
    PIC.M3XI  C...LEXI  -0.2123
    PG1.NCXI  OBJ       17.91481113
    PG1.NCXI  UPK...XI  -3.3809999999999995e+01
    PG1.NCXI  UCW...XI  -2.22
    PG1.NCXI  UTW...XI  -53.4
    PG1.NCXI  UFF...XI  -0.0503
    PG1.NCXI  BC2...XI  0.0129
    PG1.NCXI  BC3...XI  0.015
    PG1.NCXI  BC4...XI  0.0352
    PG1.NCXI  BHS...XI  0.0088
    PG1.NCXI  BWS...XI  0.0422
    PG1.NCXI  B9H...XI  -0.0784
    PG1.NCXI  BMM...XI  0.0134
    PG1.NCXI  BNH...XI  0.2803
    PG1.NCXI  BG1...XI  -1
    PG1.NCXI  C...LEXI  -0.0502
    PG1.NCXI  C...RAXI  -0.0134
    PG1.NCXI  C...RDXI  -0.072
    PG1.NCXI  BDC...XI  0.6532
    PH1.NCXI  OBJ       17.91481113
    PH1.NCXI  UPK...XI  -3.3809999999999995e+01
    PH1.NCXI  UCW...XI  -2.22
    PH1.NCXI  UTW...XI  -53.4
    PH1.NCXI  UFF...XI  -0.0503
    PH1.NCXI  BC2...XI  0.0129
    PH1.NCXI  BC3...XI  0.015
    PH1.NCXI  BC4...XI  0.0352
    PH1.NCXI  BHS...XI  0.0088
    PH1.NCXI  BWS...XI  0.0422
    PH1.NCXI  B9H...XI  -0.0521
    PH1.NCXI  BMM...XI  0.0134
    PH1.NCXI  BNH...XI  0.2803
    PH1.NCXI  BH1...XI  -1
    PH1.NCXI  C...LEXI  -0.0502
    PH1.NCXI  C...RAXI  -0.0134
    PH1.NCXI  C...RDXI  -0.072
    PH1.NCXI  BDC...XI  0.6532
    PN1.NFXI  OBJ       5.4831303989999993e+00
    PN1.NFXI  UPK...XI  -20.723
    PN1.NFXI  UCW...XI  -1.256
    PN1.NFXI  UFF...XI  -0.0026
    PN1.NFXI  BMM...XI  0.0007
    PN1.NFXI  BC2...XI  0.0023
    PN1.NFXI  BC3...XI  0.0023
    PN1.NFXI  BHS...XI  0.00459
    PN1.NFXI  BNH...XI  0.677
    PN1.NFXI  BN1...XI  -1
    PN1.NFXI  B9H...XI  -0.01096
    PN1.NFXI  BNP...XI  0.323
    PN1.NFXI  C...LEXI  0.9977
    PN1.NFXI  C...RAXI  -0.0007
    PN1.NFXI  C...RDXI  -0.0375
    PNH.NPXI  OBJ       5.0061120489999995e+00
    PNH.NPXI  UPK...XI  -33.373
    PNH.NPXI  UCW...XI  -0.907
    PNH.NPXI  UFF...XI  -0.0407
    PNH.NPXI  BC3...XI  0.015
    PNH.NPXI  BC4...XI  0.023
    PNH.NPXI  BHB...XI  0.02
    PNH.NPXI  BNH...XI  -1
    PNH.NPXI  B9H...XI  0.034
    PNH.NPXI  BNP...XI  0.9078
    PNH.NPXI  C...LEXI  -0.038
    P...OPXI  OBJ       5.52621
    P...OPXI  UTW...XI  -428.564
    P...OPXI  UCW...XI  -24.459
    P...OPXI  BO2...XI  1
    PWP.PHXI  OBJ       3.5496210103150005e+00
    PWP.PHXI  UPW...XI  0.5362
    PWP.PHXI  UPL...XI  -0.03933
    PWP.PHXI  UPK...XI  -11.074845
    PWP.PHXI  UCW...XI  -1.5815
    PWP.PHXI  BWP...XI  -1
    PG1.POXI  OBJ       8.3532425947049
    PG1.POXI  UPL...XI  -0.09085
    PG1.POXI  UPK...XI  -8.0161235299999987e+01
    PG1.POXI  UPH...XI  1.4972
    PG1.POXI  UTW...XI  -69.5
    PG1.POXI  UCW...XI  -3.5
    PG1.POXI  UBW...XI  -1.8523
    PG1.POXI  BG1...XI  -1
    PG1.POXI  BO2...XI  -0.989
    PG1.POXI  BIP...XI  0.7726
    PG1.POXI  BPS...XI  0.0051
    PG1.POXI  BWS...XI  0.0325
    PH1.POXI  OBJ       8.3581930677049012e+00
    PH1.POXI  UPL...XI  -0.09085
    PH1.POXI  UPK...XI  -8.2806235299999983e+01
    PH1.POXI  UPH...XI  1.4972
    PH1.POXI  UTW...XI  -70
    PH1.POXI  UCW...XI  -3.5
    PH1.POXI  UBW...XI  -1.8523
    PH1.POXI  BO2...XI  -1.0216
    PH1.POXI  BIP...XI  0.8173
    PH1.POXI  BPS...XI  0.0035
    PH1.POXI  BWS...XI  0.0325
    PH1.POXI  BH1...XI  -1
    PYG.POXI  OBJ       9.1370231740399
    PYG.POXI  UPL...XI  -1.0798499999999998e-01
    PYG.POXI  UPK...XI  -8.1483735299999978e+01
    PYG.POXI  UPH...XI  1.4708
    PYG.POXI  UTW...XI  -62.51
    PYG.POXI  UCW...XI  -3.198
    PYG.POXI  UBW...XI  -1.8484
    PYG.POXI  BG1...XI  -0.0261
    PYG.POXI  BO2...XI  -1.0148
    PYG.POXI  BIP...XI  0.7175
    PYG.POXI  BPS...XI  0.0303
    PYG.POXI  BWS...XI  0.0138
    PYG.POXI  BYG...XI  -1
    P...RAXI  OBJ       22.52942788515
    P...RAXI  UPK...XI  -297.70855
    P...RAXI  UCW...XI  -79.2522
    P...RAXI  C...RAXI  1
    P...RDXI  OBJ       1.134476866565
    P...RDXI  UPL...XI  -4.8541499999999993e-01
    P...RDXI  UPK...XI  -10.56045
    P...RDXI  UCW...XI  -2.4961
    P...RDXI  UDW...XI  -0.0089
    P...RDXI  C...RDXI  1
    PD1.SHXI  OBJ       3.36056600477
    PD1.SHXI  UPL...XI  -0.080845
    PD1.SHXI  UPK...XI  -1.2299249999999997e+00
    PD1.SHXI  UCW...XI  -0.8357
    PD1.SHXI  UFF...XI  -0.0022
    PD1.SHXI  UTW...XI  -8.8803
    PD1.SHXI  UDW...XI  -0.0084
    PD1.SHXI  BD1...XI  -1
    PD1.SHXI  B9H...XI  -0.0103
    PD1.SHXI  BDH...XI  0.9811
    PD1.SHXI  BC2...XI  0.0013
    PD1.SHXI  BC3...XI  0.0001
    PD1.SHXI  BNH...XI  0.0124
    PD1.SHXI  BHS...XI  0.0023
    PD1.SHXI  BMM...XI  0.0007
    PD1.SHXI  BWS...XI  0.0184
    PD1.SHXI  B6H...XI  0.0016
    PD1.SHXI  C...RDXI  -0.0144
    PD1.SHXI  C...RAXI  -0.0007
    PH1.SHXI  OBJ       20.936787204413
    PH1.SHXI  BDC...XI  0.64085452
    PH1.SHXI  C...LEXI  -0.04925122
    PH1.SHXI  BC4...XI  0.03453472
    PH1.SHXI  UPL...XI  -0.080845
    PH1.SHXI  UPK...XI  -3.4400915999999995e+01
    PH1.SHXI  UCW...XI  -3.013742
    PH1.SHXI  UFF...XI  -0.05154933
    PH1.SHXI  UTW...XI  -6.1271039999999992e+01
    PH1.SHXI  UDW...XI  -0.0084
    PH1.SHXI  BH1...XI  -1
    PH1.SHXI  B9H...XI  -0.0515062
    PH1.SHXI  BC2...XI  0.01395619
    PH1.SHXI  BC3...XI  1.4816499999999998e-02
    PH1.SHXI  BNH...XI  0.28740233
    PH1.SHXI  BHS...XI  0.01093368
    PH1.SHXI  BMM...XI  0.01384674
    PH1.SHXI  BWS...XI  0.05980242
    PH1.SHXI  B6H...XI  0.0016
    PH1.SHXI  C...RDXI  -0.0850392
    PH1.SHXI  C...RAXI  -0.01384674
    PWS.SWXI  OBJ       3.2483983031999997e-01
    PWS.SWXI  UPL...XI  -3.7685499999999994e-01
    PWS.SWXI  UPK...XI  -8.6790499999999993e-01
    PWS.SWXI  BWS...XI  -1
    PWS.SWXI  BWP...XI  1
    UPL.GMXI  OBJ       2.7182100000000003e-01
    UPL.GMXI  UPL...XI  1
    UPL.GMXI  UPH...XI  -1
    UPB.GNXI  OBJ       0.14201865866
    UPB.GNXI  UPL...XI  -5.2899999999999996e-02
    UPB.GNXI  UPK...XI  -1.9927199999999998e+00
    UPB.GNXI  UDW...XI  -4.5930769230769225e-01
    UPB.GNXI  UBW...XI  8.6956521739130443e-01
    UPC.GNXI  OBJ       3.9661880700000006e-02
    UPC.GNXI  UPL...XI  -3.5649999999999996e-03
    UPC.GNXI  UPK...XI  -3.6949499999999996e-01
    UPC.GNXI  UCW...XI  8.6956521739130443e-01
    UPC.GNXI  UPW...XI  -0.0449
    UPD.GNXI  OBJ       1.5337484728000003e-01
    UPD.GNXI  UPK...XI  -4.5815999999999996e-01
    UPD.GNXI  UDW...XI  7.6923076923076916e-01
    UPD.GNXI  URW...XI  0.1358
    UPD.GNXI  UPW...XI  -1.1358
    UPL.GNXI  OBJ       2.7182100000000003e-01
    UPL.GNXI  UPL...XI  1
    UPL.GNXI  UPM...XI  -1
    UPM.GNXI  OBJ       2.7182100000000003e-01
    UPM.GNXI  UPM...XI  1
    UPM.GNXI  UPH...XI  -1
    UPT.GNXI  OBJ       0.003484534845
    UPT.GNXI  UTW...XI  9.0909090909090906e-01
    UPT.GNXI  UPK...XI  -1.0454649999999999e+00
    UPW.GNXI  OBJ       0.116299605755
    UPW.GNXI  UPK...XI  -2.2873499999999997e-01
    UPW.GNXI  UPW...XI  1
    UPW.GNXI  URW...XI  -1
    URW.GNXI  OBJ       0.14549532184
    URW.GNXI  UPK...XI  -1.8344799999999999e+00
    URW.GNXI  URW...XI  1
    UFF.GXXI  OBJ       335.35491
    UFF.GXXI  UFF...XI  -2
    UFS.GXXI  OBJ       335.35491
    UFS.GXXI  BFS...XI  -2
    UPK.G1XI  OBJ       4.4880000000000007e-03
    UPK.G1XI  UPK...XI  1
    UPK.G1XI  UPH...XI  -0.0235
    UPK.G1XI  UPM...XI  0.0235
    UPT.G1XI  OBJ       9.9041569999999985e-03
    UPT.G1XI  UTW...XI  9.0909090909090906e-01
    UPT.G1XI  UPH...XI  -0.0352
    UPT.G1XI  UPM...XI  0.0352
    UPK.G2XI  OBJ       4.4880000000000007e-03
    UPK.G2XI  UPK...XI  1
    UPK.G2XI  UPH...XI  -0.0082
    UPK.G2XI  UPL...XI  0.0082
    UPT.G2XI  OBJ       0.00355343
    UPT.G2XI  UTW...XI  9.0909090909090906e-01
    UPT.G2XI  UPH...XI  -0.0118
    UPT.G2XI  UPL...XI  0.0118
    UPK.G3XI  OBJ       4.4880000000000007e-03
    UPK.G3XI  UBW...XI  3.8260869565217397e-03
    UPK.G3XI  UPK...XI  1
    UPK.G3XI  UPH...XI  -0.0044
    UPK.G3XI  UCW...XI  -0.1271
    UPT.G3XI  OBJ       0.001897793
    UPT.G3XI  UTW...XI  9.0909090909090906e-01
    UPT.G3XI  UPH...XI  -0.0057
    UPT.G3XI  UCW...XI  -0.0883
    UPT.G4XI  OBJ       0.005307911
    UPT.G4XI  UTW...XI  9.0909090909090906e-01
    UPT.G4XI  UPM...XI  -0.0183
    UPT.G4XI  UPL...XI  0.0183
    UPT.G5XI  OBJ       0.00231788
    UPT.G5XI  UTW...XI  9.0909090909090906e-01
    UPT.G5XI  UPM...XI  -0.0073
    UPT.G5XI  UCW...XI  -0.1131
    QWT0FLXI  BFL...XI  1
    QWT0FLXI  BFL.WTXI  -1
    QWT0FLXI  XSU.FLXI  -0.3
    QWT0FLXI  XGS.FLXI  1
    QWT0F1XI  BF1...XI  1
    QWT0F1XI  BF1.WTXI  -1
    QWT0F1XI  XSU.F1XI  -0.3
    QWT0F1XI  XGS.F1XI  1
RHS
    RHS1      OBJ       -1.3681877768265335e+03
    RHS1      BHB...XI  -6.7426952000000007e-01
    RHS1      BO2...XI  14.26546285
    RHS1      BPS...XI  -8.7332249000000006e-01
    RHS1      BWS...XI  -9.4469463600000019e+00
    RHS1      B9H...XI  -3.0754580500000004e+00
    RHS1      UCW...XI  284.233295
    RHS1      UDW...XI  3.1077369100000002e+01
    RHS1      UPK...XI  3.7960374901293631e+03
    RHS1      UPL...XI  2.1715603064999996e+01
    RHS1      UTW...XI  4144.24697
BOUNDS
 UP BND1      BD1.FLXI  3.4904234905530003e+00
 UP BND1      BH1.FLXI  9.3802302694000006e-01
 UP BND1      BDC.F1XI  100.101
 UP BND1      BDH.F1XI  100.101
 UP BND1      BD1.F1XI  3.4904234905530003e+00
 LO BND1      DFH...XI  1.5096513751441129e-01
 UP BND1      DFH...XI  100
 UP BND1      DF1...XI  100
 UP BND1      DL2...XI  100
 UP BND1      DL3...XI  100
 UP BND1      DL4...XI  100
 LO BND1      DMM...XI  6.4534400000003433e-02
 UP BND1      DMM...XI  100
 LO BND1      DPS...XI  3.2752453007519156e-01
 UP BND1      DPS...XI  100
 UP BND1      MH1.G1XI  9.3802302694000006e-01
 LO BND1      PHS.CUXI  3.2752453007518789e-01
 UP BND1      PHS.CUXI  100.101
 LO BND1      P...FOXI  1.9327732650300619e-01
 UP BND1      PYG.GXXI  5.5848841965651745e+00
 UP BND1      PYF.HSXI  5.5848841965651745e+00
 LO BND1      PC2.HYXI  0.7223759
 UP BND1      PC2.HYXI  1.8635810644183542e+02
 LO BND1      PC3.HYXI  0.3067919
 LO BND1      PC4.HYXI  0.174824
 LO BND1      P6H.HYXI  0.1511477
 UP BND1      P6H.HYXI  2.8147045044898877e-01
 UP BND1      P...LEXI  1.1270372082535665e+01
 LO BND1      PIC.M3XI  10
 UP BND1      PIC.M3XI  17.9327
 UP BND1      PG1.NCXI  70.3458039857318
 UP BND1      PH1.NCXI  9.3802302694000006e-01
 UP BND1      PN1.NFXI  2.9339900610010003e+00
 LO BND1      PNH.NPXI  0.1521698768
 UP BND1      PNH.NPXI  1.0089456623801718e+02
 LO BND1      PWP.PHXI  1.6443530000000002e+00
 UP BND1      PG1.POXI  1.9562906443756445e+04
 UP BND1      PH1.POXI  9.3802302694000006e-01
 UP BND1      PYG.POXI  5.5848841965651745e+00
 LO BND1      P...RAXI  0.0643346
 UP BND1      P...RAXI  1.0910440235419412e+00
 LO BND1      P...RDXI  2.6091872
 UP BND1      P...RDXI  1.0063351370912425e+01
 UP BND1      PD1.SHXI  3.4904234905530003e+00
 UP BND1      PH1.SHXI  9.3802302694000006e-01
 LO BND1      PWS.SWXI  2.8006472476282731e+00
 LO BND1      UPC.GNXI  1.1420982788292218e+02
 LO BND1      UPD.GNXI  5.2982840043266644e-01
 LO BND1      UPW.GNXI  7.1086496778756086e-02
 UP BND1      QWT0F1XI  100.101
ENDATA
